Version identifier: 20.1.0.0 | 2020-11-10 | 9bedb6d68
Tried aggregator 3 times.
MIP Presolve eliminated 636 rows and 369 columns.
MIP Presolve modified 1193 coefficients.
Aggregator did 80 substitutions.
Reduced MIP has 490 rows, 383 columns, and 1540 nonzeros.
Reduced MIP has 80 binaries, 303 generals, 0 SOSs, and 0 indicators.
Presolve time = 0.01 sec. (3.10 ticks)
Found incumbent of value 380.000000 after 0.01 sec. (4.49 ticks)
Probing fixed 15 vars, tightened 110 bounds.
Probing time = 0.00 sec. (0.35 ticks)
Tried aggregator 1 time.
Detecting symmetries...
MIP Presolve eliminated 210 rows and 15 columns.
MIP Presolve modified 20 coefficients.
Reduced MIP has 280 rows, 368 columns, and 880 nonzeros.
Reduced MIP has 133 binaries, 235 generals, 0 SOSs, and 0 indicators.
Presolve time = 0.00 sec. (1.03 ticks)
Probing time = 0.00 sec. (0.09 ticks)
Clique table members: 51.
MIP emphasis: balance optimality and feasibility.
MIP search method: dynamic search.
Parallel mode: deterministic, using up to 24 threads.
Root relaxation solution time = 0.00 sec. (0.56 ticks)

        Nodes                                         Cuts/
   Node  Left     Objective  IInf  Best Integer    Best Bound    ItCnt     Gap

*     0+    0                          380.0000        0.0000           100.00%
*     0+    0                            7.0000        0.0000           100.00%
      0     0        0.5000    14        7.0000        0.5000       85   92.86%
*     0+    0                            2.0000        0.5000            75.00%
      0     0        cutoff              2.0000                     85    0.00%
Elapsed time = 0.15 sec. (7.70 ticks, tree = 0.01 MB, solutions = 3)

Root node processing (before b&c):
  Real time             =    0.15 sec. (7.74 ticks)
Parallel b&c, 24 threads:
  Real time             =    0.00 sec. (0.00 ticks)
  Sync time (average)   =    0.00 sec.
  Wait time (average)   =    0.00 sec.
                          ------------
Total (root+branch&cut) =    0.15 sec. (7.74 ticks)

Solution status = Optimal
Solution LB = 2
Solution UB = 2
Runtime = 0.156224 seconds
	Command being timed: "/home/min/git_repos/CS598MEBProject/CNT-ILP/build/cnt -s 2 ./output/k6_n15/simC_c1_k6_n15_u1_s2_del04.input-left.cnp"
	User time (seconds): 2.14
	System time (seconds): 0.02
	Percent of CPU this job got: 1123%
	Elapsed (wall clock) time (h:mm:ss or m:ss): 0:00.19
	Average shared text size (kbytes): 0
	Average unshared data size (kbytes): 0
	Average stack size (kbytes): 0
	Average total size (kbytes): 0
	Maximum resident set size (kbytes): 42136
	Average resident set size (kbytes): 0
	Major (requiring I/O) page faults: 0
	Minor (reclaiming a frame) page faults: 7489
	Voluntary context switches: 929
	Involuntary context switches: 392
	Swaps: 0
	File system inputs: 0
	File system outputs: 24
	Socket messages sent: 0
	Socket messages received: 0
	Signals delivered: 0
	Page size (bytes): 4096
	Exit status: 0
